170 2958
2946 2478
5229 3951
2219 7113
6045 4418
2154 9
2767 6463
7507 829
6497 5064
4174 6105
7331 7794
5073 3956
2303 2499
3575 5837
3105 2745
6744 9651
7500 2791
4301 4679
3162 9280
7660 8777
2241 7603
1697 6456
4476 5762
4837 1472
4984 1500
9238 7688
2902 2156
4729 4105
6164 8903
5162 7361
588 4753
5962 5477
5074 8935
1258 8507
1924 692
648 4276
4140 6
6113 3129
6735 6382
6417 718
2635 5866
9975 5213
1053 3242
8794 1734
591 7521
5303 4904
723 1502
9263 7878
9653 9631
9897 4958
